# Objective value = 9.9583433985968594e+12
slot(VEL601G,29) 1
slot(HBV401G,17) 1
slot(STA202G,16) 1
slot(EFN205G,3) 1
slot(LEF406G,17) 1
slot(EFN214G,3) 1
slot(JAR418G,3) 1
slot(FER603M,2) 1
slot(RAF403G,6) 1
slot(BYG603G,16) 1
slot(TOL203F,5) 1
slot(IDN209F,3) 1
slot(JAR253F,5) 1
slot(LIF412M,9) 1
slot(LEF617M,1) 1
slot(UMV213F,3) 1
slot(LAN203G,2) 1
slot(STA405G,4) 1
slot(STA209G,2) 1
slot(TOL203G,6) 1
slot(UAU214M,5) 1
slot(VEL202G,24) 1
slot(LIF401G,20) 1
slot(LAN604M,4) 1
slot(EDL403G,2) 1
slot(BYG201G,4) 1
slot(TOL401G,29) 1
slot(JAR211G,16) 1
slot(JAR417G,3) 1
slot(RAF401G,2) 1
slot(RAF616M,3) 1
slot(STA403M,18) 1
slot(EFN410G,4) 1
slot(IDN403G,8) 1
slot(REI202M,2) 1
slot(LIF201G,15) 1
slot(REI201G,31) 1
slot(STA207G,8) 1
slot(STA401G,8) 1
slot(HBV601G,15) 1
slot(LIF633G,8) 1
slot(FER409G,4) 1
slot(LIF227F,8) 1
slot(FER210F,4) 1
slot(STA205G,15) 1
slot(IDN603G,10) 1
slot(JED201G,5) 1
slot(LIF635G,2) 1
slot(EDL402G,17) 1
slot(EFN406G,8) 1
slot(BYG401G,1) 1
slot(TOV602M,7) 1
slot(STA203G,1) 1
slot(MAS201F,1) 1
slot(VEL218F,5) 1
slot(JAR617G,7) 1
slot(LIF410G,3) 1
slot(UAU206M,3) 1
slot(LAN205G,7) 1
slot(LIF243F,3) 1
slot(RAF601G,7) 1
slot(EDL204G,2) 1
slot(EFN404G,10) 1
slot(BYG601G,2) 1
slot(IDN401G,32) 1
slot(LIF214G,8) 1
slot(EDL612M,4) 1
slot(VEL402G,31) 1
slot(HBV201G,20) 1
slot(JAR202G,9) 1
slot(LIF615M,16) 1
slot(RAF201G,24) 1
slot(LEF616M,16) 1
slot(UMV203G,9) 1
slot(TOL202M,19) 1
slot(LAN219G,1) 1
slot(LAN410G,3) 1
slot(LAN209F,3) 1
slot(RAF402G,19) 1
slot(EDL401G,19) 1
slot(EFN202G,10) 1
slot(TOL403G,24) 1
slot(JAR415G,8) 1
slot(JAR212G,1) 1
slot(LIF403G,6) 1
slot(FER208G,3) 1
slot(UMV203M,8) 1
slot(HBV203F,3) 1
slot(STA418M,1) 1
slot(EDL201G,20) 1
slot(EFN207G,16) 1
slot(EDL402M,5) 1
slot(EDL206G,20) 1
slot(BYG202M,5) 1
slot(BYG203M,3) 1
slot(VEL401G,23) 1
slot(IDN402G,23) 1
slot(JAR619G,3) 1
slot(LIF215G,2) 1
slot(TOV201G,10) 1
slot(EFN208G,5) 1
slot(HBV402G,18) 1
slot(JAR611G,9) 1
slot(LIF614M,4) 1
slot(LAN401G,7) 1
slot(FER609G,7) 1
slot(FER211F,7) 1
slot(RAF404G,9) 1
slot(STA411G,10) 1
slot(EDL205G,17) 1
slot(EFN408G,1) 1
slot(UMV201G,17) 1
slot(BYG201M,7) 1
slot(VEL201G,6) 1
slot(TOL203M,8) 1
slot(VEL215F,8) 1
slot(EFN612M,7) 1
slot(VEL405G,3) 1
slot(EDL203G,23) 1
